NAME : random_19
COMMENT : 44 random nodes
TYPE : TSP
DIMENSION : 44
EDGE_WEIGHT_TYPE : EUC_2D
NODE_COORD_SECTION
1 6039 -1497
2 505 -4852
3 2520 -3506
4 6121 1870
5 -5476 -676
6 -5104 6886
7 -3857 6077
8 5218 -1539
9 3766 -5578
10 -4210 181
11 2195 -3507
12 -1708 -4736
13 6153 -403
14 3792 -6152
15 -2719 -2475
16 -1023 2816
17 5170 -2308
18 -4923 -181
19 -5395 2452
20 -2968 3479
21 6935 1034
22 4843 -929
23 6692 -667
24 -193 -825
25 -3604 3158
26 4431 -5497
27 1165 -807
28 3325 -1388
29 1420 -1106
30 -4814 5668
31 -5458 -5479
32 5743 -4866
33 -114 5629
34 3449 -1298
35 -202 -6150
36 -196 2125
37 195 1932
38 -5954 3943
39 -5420 -3721
40 -5217 -1898
41 7246 -1915
42 -6164 3841
43 2642 1352
44 4706 1220
EOF